p cnf 7230 17
-4354 -6447 6554 0
6447 -6554 0
-4476 -6455 -6559 0
-6309 -6453 -6557 0
-4378 -6451 -6555 0
4476 -6560 0
6309 -6558 0
4378 -6556 0
6559 6560 0
6557 6558 0
6555 6556 0
6455 -6560 0
6453 -6558 0
6451 -6556 0
4478 -6562 0
6553 6554 0
-6553 -6554 0
